86 68 96 74 16 1 58 75 62 91 76 38 42 53 59 13 25 19 32 55 83 49 52 6 69 29 78 31 33 12 46 90 45 81 48 89 54 21 3 94 61 73 95 67 9 4 87 7 71 39 8 15 79 51 66 34 64 50 27 98 2 80 11 37 47 88 92 5 20 14 56 0 23 17 30 97 26 28 40 70 63 36 43 57 24 44 99 35 77 84 72 18 22 85 82 60 41 93 65 10